NAME          DCAP_2_4_3_500_SS26
ROWS
 N  OBJ
 L  CON1
 L  CON2
 L  CON3
 L  CON4
 L  CON5
 L  CON6
 L  CON7
 L  CON8
 L  CON9
 L  CON10
 L  CON11
 L  CON12
 E  CON13
 E  CON14
 E  CON15
 E  CON16
 E  CON17
 E  CON18
 E  CON19
 E  CON20
 E  CON21
 E  CON22
 E  CON23
 E  CON24
COLUMNS
    x[1,1]    OBJ       6.180167      CON1      1.000000    
    x[1,1]    CON7      -1.000000     CON8      -1.000000   
    x[1,1]    CON9      -1.000000   
    x[1,2]    OBJ       6.563535      CON2      1.000000    
    x[1,2]    CON8      -1.000000     CON9      -1.000000   
    x[1,3]    OBJ       7.443064      CON3      1.000000    
    x[1,3]    CON9      -1.000000   
    x[2,1]    OBJ       6.732585      CON4      1.000000    
    x[2,1]    CON10     -1.000000     CON11     -1.000000   
    x[2,1]    CON12     -1.000000   
    x[2,2]    OBJ       5.039546      CON5      1.000000    
    x[2,2]    CON11     -1.000000     CON12     -1.000000   
    x[2,3]    OBJ       6.054841      CON6      1.000000    
    x[2,3]    CON12     -1.000000   
    MARKER    'MARKER'                'INTORG'
    u[1,1]    OBJ       48.076654     CON1      -1.000000   
    u[1,2]    OBJ       20.066487     CON2      -1.000000   
    u[1,3]    OBJ       32.230043     CON3      -1.000000   
    u[2,1]    OBJ       49.996186     CON4      -1.000000   
    u[2,2]    OBJ       49.466655     CON5      -1.000000   
    u[2,3]    OBJ       27.484319     CON6      -1.000000   
    y[1,1,1]  OBJ       9.223178      CON7      1.191059    
    y[1,1,1]  CON13     1.000000    
    y[1,1,2]  OBJ       6.957803      CON8      1.251067    
    y[1,1,2]  CON14     1.000000    
    y[1,1,3]  OBJ       7.960195      CON9      0.694653    
    y[1,1,3]  CON15     1.000000    
    y[1,2,1]  OBJ       9.262542      CON7      0.696905    
    y[1,2,1]  CON16     1.000000    
    y[1,2,2]  OBJ       6.235700      CON8      1.233053    
    y[1,2,2]  CON17     1.000000    
    y[1,2,3]  OBJ       8.453981      CON9      0.578865    
    y[1,2,3]  CON18     1.000000    
    y[1,3,1]  OBJ       6.208862      CON7      0.925925    
    y[1,3,1]  CON19     1.000000    
    y[1,3,2]  OBJ       6.459525      CON8      0.536703    
    y[1,3,2]  CON20     1.000000    
    y[1,3,3]  OBJ       9.899360      CON9      1.253110    
    y[1,3,3]  CON21     1.000000    
    y[1,4,1]  OBJ       8.053914      CON7      0.990350    
    y[1,4,1]  CON22     1.000000    
    y[1,4,2]  OBJ       5.839671      CON8      0.674271    
    y[1,4,2]  CON23     1.000000    
    y[1,4,3]  OBJ       8.563535      CON9      1.054328    
    y[1,4,3]  CON24     1.000000    
    y[2,1,1]  OBJ       5.299616      CON10     1.191059    
    y[2,1,1]  CON13     1.000000    
    y[2,1,2]  OBJ       5.432379      CON11     1.251067    
    y[2,1,2]  CON14     1.000000    
    y[2,1,3]  OBJ       8.652638      CON12     0.694653    
    y[2,1,3]  CON15     1.000000    
    y[2,2,1]  OBJ       6.406711      CON10     0.696905    
    y[2,2,1]  CON16     1.000000    
    y[2,2,2]  OBJ       9.434031      CON11     1.233053    
    y[2,2,2]  CON17     1.000000    
    y[2,2,3]  OBJ       8.953496      CON12     0.578865    
    y[2,2,3]  CON18     1.000000    
    y[2,3,1]  OBJ       8.044724      CON10     0.925925    
    y[2,3,1]  CON19     1.000000    
    y[2,3,2]  OBJ       7.599792      CON11     0.536703    
    y[2,3,2]  CON20     1.000000    
    y[2,3,3]  OBJ       6.339545      CON12     1.253110    
    y[2,3,3]  CON21     1.000000    
    y[2,4,1]  OBJ       7.600659      CON10     0.990350    
    y[2,4,1]  CON22     1.000000    
    y[2,4,2]  OBJ       8.206722      CON11     0.674271    
    y[2,4,2]  CON23     1.000000    
    y[2,4,3]  OBJ       6.457461      CON12     1.054328    
    y[2,4,3]  CON24     1.000000    
    z[1,1]    OBJ       632.629505    CON13     1.000000    
    z[1,2]    OBJ       696.783579    CON14     1.000000    
    z[1,3]    OBJ       571.661141    CON15     1.000000    
    z[2,1]    OBJ       839.384779    CON16     1.000000    
    z[2,2]    OBJ       614.016101    CON17     1.000000    
    z[2,3]    OBJ       669.364601    CON18     1.000000    
    z[3,1]    OBJ       809.843100    CON19     1.000000    
    z[3,2]    OBJ       938.138964    CON20     1.000000    
    z[3,3]    OBJ       800.818237    CON21     1.000000    
    z[4,1]    OBJ       686.213003    CON22     1.000000    
    z[4,2]    OBJ       515.273704    CON23     1.000000    
    z[4,3]    OBJ       974.294450    CON24     1.000000    
    MARKER    'MARKER'                 'INTEND'
RHS
    RHS       CON1      -0.000000     CON2      -0.000000   
    RHS       CON3      -0.000000     CON4      -0.000000   
    RHS       CON5      -0.000000     CON6      -0.000000   
    RHS       CON7      -0.000000     CON8      -0.000000   
    RHS       CON9      -0.000000     CON10     -0.000000   
    RHS       CON11     -0.000000     CON12     -0.000000   
    RHS       CON13     1.000000      CON14     1.000000    
    RHS       CON15     1.000000      CON16     1.000000    
    RHS       CON17     1.000000      CON18     1.000000    
    RHS       CON19     1.000000      CON20     1.000000    
    RHS       CON21     1.000000      CON22     1.000000    
    RHS       CON23     1.000000      CON24     1.000000    
BOUNDS
 BV BOUND     u[1,1]  
 BV BOUND     u[1,2]  
 BV BOUND     u[1,3]  
 BV BOUND     u[2,1]  
 BV BOUND     u[2,2]  
 BV BOUND     u[2,3]  
 BV BOUND     y[1,1,1]
 BV BOUND     y[1,1,2]
 BV BOUND     y[1,1,3]
 BV BOUND     y[1,2,1]
 BV BOUND     y[1,2,2]
 BV BOUND     y[1,2,3]
 BV BOUND     y[1,3,1]
 BV BOUND     y[1,3,2]
 BV BOUND     y[1,3,3]
 BV BOUND     y[1,4,1]
 BV BOUND     y[1,4,2]
 BV BOUND     y[1,4,3]
 BV BOUND     y[2,1,1]
 BV BOUND     y[2,1,2]
 BV BOUND     y[2,1,3]
 BV BOUND     y[2,2,1]
 BV BOUND     y[2,2,2]
 BV BOUND     y[2,2,3]
 BV BOUND     y[2,3,1]
 BV BOUND     y[2,3,2]
 BV BOUND     y[2,3,3]
 BV BOUND     y[2,4,1]
 BV BOUND     y[2,4,2]
 BV BOUND     y[2,4,3]
 BV BOUND     z[1,1]  
 BV BOUND     z[1,2]  
 BV BOUND     z[1,3]  
 BV BOUND     z[2,1]  
 BV BOUND     z[2,2]  
 BV BOUND     z[2,3]  
 BV BOUND     z[3,1]  
 BV BOUND     z[3,2]  
 BV BOUND     z[3,3]  
 BV BOUND     z[4,1]  
 BV BOUND     z[4,2]  
 BV BOUND     z[4,3]  
ENDATA
